NAME: GRASP_51_7
TYPE: TSP
COMMENT: line_51_7
DIMENSION: 51
EDGE_WEIGHT_TYPE: EUC_2D
NODE_COORD_SECTION
1 2720 4093
2 2705 2876
3 2512 5
4 3483 4363
5 1494 1701
6 3339 456
7 2990 1537
8 603 434
9 4105 3847
10 4331 407
11 3750 22
12 200 4603
13 376 4291
14 32 2759
15 4817 210
16 1755 2175
17 394 2571
18 107 2717
19 64 324
20 28 4038
21 4779 2665
22 4026 509
23 1879 4293
24 2824 4287
25 4456 2429
26 3924 4153
27 2627 4998
28 674 3860
29 4412 331
30 2126 69
31 2778 3637
32 2468 2262
33 666 715
34 3703 4367
35 3609 2271
36 1011 3967
37 3417 281
38 673 935
39 3124 2870
40 193 4451
41 604 1698
42 36 120
43 3939 2075
44 833 4683
45 73 3022
46 692 2522
47 3553 4059
48 892 3523
49 343 4197
50 3017 4220
51 4831 2570
